(set-logic UF)
(declare-sort Loc 0)
(declare-sort SetLoc 0)
(declare-sort FldBool 0)
(declare-sort FldLoc 0)
(declare-fun null$0 () Loc)
(declare-fun read$0 (FldLoc Loc) Loc)
(declare-fun emptyset$0 () SetLoc)
(declare-fun setenum$0 (Loc) SetLoc)
(declare-fun union$0 (SetLoc SetLoc) SetLoc)
(declare-fun intersection$0 (SetLoc SetLoc) SetLoc)
(declare-fun setminus$0 (SetLoc SetLoc) SetLoc)
(declare-fun Btwn$0 (FldLoc Loc Loc Loc) Bool)
(declare-fun in$0 (Loc SetLoc) Bool)
(declare-fun Alloc$0 () SetLoc)
(declare-fun Axiom$0 () Bool)
(declare-fun FP$0 () SetLoc)
(declare-fun FP_Caller$0 () SetLoc)
(declare-fun FP_Caller_1$0 () SetLoc)
(declare-fun a$0 () Loc)
(declare-fun b$0 () Loc)
(declare-fun dlseg_domain$0 (FldLoc FldLoc Loc Loc Loc Loc) SetLoc)
(declare-fun dlseg_struct$0 (SetLoc FldLoc FldLoc Loc Loc Loc Loc) Bool)
(declare-fun elt$0 () Loc)
(declare-fun next$0 () FldLoc)
(declare-fun prev$0 () FldLoc)
(declare-fun sk_?X$0 () SetLoc)
(declare-fun sk_?X_1$0 () SetLoc)
(declare-fun sk_?X_2$0 () SetLoc)
(declare-fun sk_?X_3$0 () SetLoc)
(assert (not (not (= (not (in$0 elt$0 FP$0)) (not (in$0 elt$0 (union$0 (dlseg_domain$0 next$0 prev$0 (read$0 next$0 elt$0) (read$0 next$0 elt$0) (read$0 next$0 elt$0) b$0) (setenum$0 elt$0))))))))
(assert (not (not (not (in$0 elt$0 FP$0)))))
(assert (not (not (in$0 elt$0 (union$0 (dlseg_domain$0 next$0 prev$0 (read$0 next$0 elt$0) (read$0 next$0 elt$0) (read$0 next$0 elt$0) b$0) (setenum$0 elt$0))))))
(check-sat)
(exit)
